100 10
825 331
910 632
624 578
617 513
280 407
528 527
668 513
415 504
513 577
492 828
717 834
691 485
276 532
496 229
898 636
289 666
522 476
482 548
775 323
513 563
604 661
737 671
781 430
350 266
459 659
936 542
542 798
376 657
237 813
333 443
466 652
769 516
902 686
748 355
598 748
133 622
238 275
227 563
405 396
763 762
391 697
144 639
678 609
635 250
943 726
897 892
827 350
138 675
587 473
279 835
347 835
95 770
648 778
764 752
632 326
404 551
404 413
563 484
193 580
701 774
805 824
286 413
437 430
759 266
171 534
867 624
535 510
365 426
453 519
67 890
90 588
846 694
395 124
340 430
339 334
514 702
797 743
925 325
642 541
798 551
377 799
397 855
279 521
265 530
696 577
139 287
552 559
468 681
476 587
394 662
812 321
655 287
508 384
684 418
461 370
574 581
614 477
154 443
488 251
662 356
